Route #1: 1 15 7 1 
Route #2: 1 28 33 1 
Route #3: 1 5 42 41 43 20 42 26 42 14 19 1 
Route #4: 1 9 8 44 8 32 27 8 24 25 1 
Route #5: 1 12 17 21 29 4 21 36 37 21 23 2 1 
Route #6: 1 13 38 18 42 45 16 11 31 10 39 1 
Route #7: 1 6 11 40 34 11 35 22 30 21 3 1 
Cost 757.0
